NAME          DCAP_3_4_2_300_SS13
ROWS
 N  OBJ
 L  CON1
 L  CON2
 L  CON3
 L  CON4
 L  CON5
 L  CON6
 L  CON7
 L  CON8
 L  CON9
 L  CON10
 L  CON11
 L  CON12
 E  CON13
 E  CON14
 E  CON15
 E  CON16
 E  CON17
 E  CON18
 E  CON19
 E  CON20
COLUMNS
    x[1,1]    OBJ       6.180167      CON1      1.000000    
    x[1,1]    CON7      -1.000000     CON8      -1.000000   
    x[1,2]    OBJ       5.039546      CON2      1.000000    
    x[1,2]    CON8      -1.000000   
    x[2,1]    OBJ       6.732585      CON3      1.000000    
    x[2,1]    CON9      -1.000000     CON10     -1.000000   
    x[2,2]    OBJ       7.443064      CON4      1.000000    
    x[2,2]    CON10     -1.000000   
    x[3,1]    OBJ       6.563535      CON5      1.000000    
    x[3,1]    CON11     -1.000000     CON12     -1.000000   
    x[3,2]    OBJ       6.054841      CON6      1.000000    
    x[3,2]    CON12     -1.000000   
    MARKER    'MARKER'                'INTORG'
    u[1,1]    OBJ       48.076654     CON1      -1.000000   
    u[1,2]    OBJ       49.466655     CON2      -1.000000   
    u[2,1]    OBJ       49.996186     CON3      -1.000000   
    u[2,2]    OBJ       32.230043     CON4      -1.000000   
    u[3,1]    OBJ       20.066487     CON5      -1.000000   
    u[3,2]    OBJ       27.484319     CON6      -1.000000   
    y[1,1,1]  OBJ       6.316423      CON7      0.969447    
    y[1,1,1]  CON13     1.000000    
    y[1,1,2]  OBJ       5.233434      CON8      0.523199    
    y[1,1,2]  CON14     1.000000    
    y[1,2,1]  OBJ       9.880138      CON7      0.584183    
    y[1,2,1]  CON15     1.000000    
    y[1,2,2]  OBJ       7.423044      CON8      1.126765    
    y[1,2,2]  CON16     1.000000    
    y[1,3,1]  OBJ       6.430097      CON7      1.338722    
    y[1,3,1]  CON17     1.000000    
    y[1,3,2]  OBJ       5.414244      CON8      1.104399    
    y[1,3,2]  CON18     1.000000    
    y[1,4,1]  OBJ       7.142569      CON7      0.726064    
    y[1,4,1]  CON19     1.000000    
    y[1,4,2]  OBJ       6.139514      CON8      1.293928    
    y[1,4,2]  CON20     1.000000    
    y[2,1,1]  OBJ       9.347682      CON9      0.969447    
    y[2,1,1]  CON13     1.000000    
    y[2,1,2]  OBJ       9.329040      CON10     0.523199    
    y[2,1,2]  CON14     1.000000    
    y[2,2,1]  OBJ       7.259805      CON9      0.584183    
    y[2,2,1]  CON15     1.000000    
    y[2,2,2]  OBJ       5.638019      CON10     1.126765    
    y[2,2,2]  CON16     1.000000    
    y[2,3,1]  OBJ       9.805645      CON9      1.338722    
    y[2,3,1]  CON17     1.000000    
    y[2,3,2]  OBJ       9.190577      CON10     1.104399    
    y[2,3,2]  CON18     1.000000    
    y[2,4,1]  OBJ       9.123551      CON9      0.726064    
    y[2,4,1]  CON19     1.000000    
    y[2,4,2]  OBJ       8.468727      CON10     1.293928    
    y[2,4,2]  CON20     1.000000    
    y[3,1,1]  OBJ       8.294581      CON11     0.969447    
    y[3,1,1]  CON13     1.000000    
    y[3,1,2]  OBJ       8.054667      CON12     0.523199    
    y[3,1,2]  CON14     1.000000    
    y[3,2,1]  OBJ       9.313475      CON11     0.584183    
    y[3,2,1]  CON15     1.000000    
    y[3,2,2]  OBJ       9.305548      CON12     1.126765    
    y[3,2,2]  CON16     1.000000    
    y[3,3,1]  OBJ       9.276401      CON11     1.338722    
    y[3,3,1]  CON17     1.000000    
    y[3,3,2]  OBJ       7.494475      CON12     1.104399    
    y[3,3,2]  CON18     1.000000    
    y[3,4,1]  OBJ       9.364897      CON11     0.726064    
    y[3,4,1]  CON19     1.000000    
    y[3,4,2]  OBJ       8.301779      CON12     1.293928    
    y[3,4,2]  CON20     1.000000    
    z[1,1]    OBJ       889.376305    CON13     1.000000    
    z[1,2]    OBJ       705.059328    CON14     1.000000    
    z[2,1]    OBJ       855.771710    CON15     1.000000    
    z[2,2]    OBJ       977.836077    CON16     1.000000    
    z[3,1]    OBJ       738.088818    CON17     1.000000    
    z[3,2]    OBJ       751.650632    CON18     1.000000    
    z[4,1]    OBJ       864.064986    CON19     1.000000    
    z[4,2]    OBJ       656.045335    CON20     1.000000    
    MARKER    'MARKER'                 'INTEND'
RHS
    RHS       CON1      -0.000000     CON2      -0.000000   
    RHS       CON3      -0.000000     CON4      -0.000000   
    RHS       CON5      -0.000000     CON6      -0.000000   
    RHS       CON7      -0.000000     CON8      -0.000000   
    RHS       CON9      -0.000000     CON10     -0.000000   
    RHS       CON11     -0.000000     CON12     -0.000000   
    RHS       CON13     1.000000      CON14     1.000000    
    RHS       CON15     1.000000      CON16     1.000000    
    RHS       CON17     1.000000      CON18     1.000000    
    RHS       CON19     1.000000      CON20     1.000000    
BOUNDS
 BV BOUND     u[1,1]  
 BV BOUND     u[1,2]  
 BV BOUND     u[2,1]  
 BV BOUND     u[2,2]  
 BV BOUND     u[3,1]  
 BV BOUND     u[3,2]  
 BV BOUND     y[1,1,1]
 BV BOUND     y[1,1,2]
 BV BOUND     y[1,2,1]
 BV BOUND     y[1,2,2]
 BV BOUND     y[1,3,1]
 BV BOUND     y[1,3,2]
 BV BOUND     y[1,4,1]
 BV BOUND     y[1,4,2]
 BV BOUND     y[2,1,1]
 BV BOUND     y[2,1,2]
 BV BOUND     y[2,2,1]
 BV BOUND     y[2,2,2]
 BV BOUND     y[2,3,1]
 BV BOUND     y[2,3,2]
 BV BOUND     y[2,4,1]
 BV BOUND     y[2,4,2]
 BV BOUND     y[3,1,1]
 BV BOUND     y[3,1,2]
 BV BOUND     y[3,2,1]
 BV BOUND     y[3,2,2]
 BV BOUND     y[3,3,1]
 BV BOUND     y[3,3,2]
 BV BOUND     y[3,4,1]
 BV BOUND     y[3,4,2]
 BV BOUND     z[1,1]  
 BV BOUND     z[1,2]  
 BV BOUND     z[2,1]  
 BV BOUND     z[2,2]  
 BV BOUND     z[3,1]  
 BV BOUND     z[3,2]  
 BV BOUND     z[4,1]  
 BV BOUND     z[4,2]  
ENDATA
